WARNING: for repeatability, setting FPU to use double precision
============================[ Problem Statistics ]=============================
|                                                                             |
|  Number of variables:           100                                         |
|  Number of clauses:             449                                         |
|  Parse time:                   0.00 s                                       |
|  Eliminated clauses:           0.00 Mb                                      |
|  Simplification time:          0.00 s                                       |
|                                                                             |
============================[ Search Statistics ]==============================
| Conflicts |          ORIGINAL         |          LEARNT          | Progress |
|           |    Vars  Clauses Literals |    Limit  Clauses Lit/Cl |          |
===============================================================================
|       100 |      98      433     1299 |      158      100      6 |  0.011 % |
===============================================================================
restarts              : 3
conflicts             : 229            (80182 /sec)
decisions             : 302            (0.00 % random) (105742 /sec)
propagations          : 4961           (1737045 /sec)
conflict literals     : 1387           (20.92 % deleted)
Memory used           : 13.00 MB
CPU time              : 0.002856 s

SATISFIABLE
